&CONTROL
calculation = 'vc-relax'
prefix = 'WSSe'
outdir = './work'
pseudo_dir = '/home/mainadmin/research/danu/pseudo'
/

&SYSTEM
ibrav = 0
nat = 3
ntyp = 3
ecutwfc=60
ecutrho=240
/

&ELECTRONS
conv_thr = 1d-8
mixing_beta = 0.5
/

&IONS
/

&CELL
cell_dofree ='2Dxy'
/

ATOMIC_SPECIES
W 183.84 W.pbe-spn-kjpaw_psl.1.0.0.UPF
S 32.065 S.pbe-n-kjpaw_psl.1.0.0.UPF 
Se 78.96 Se.pbe-dn-kjpaw_psl.1.0.0.UPF

CELL_PARAMETERS {angstrom}
 3.200000000000000000  0.000000000000000000  0.000000000000000000
 -1.60000000000000000  2.771281292110203712  0.000000000000000000
 0.000000000000000000  0.000000000000000000  25.00000000000000000

ATOMIC_POSITIONS {crystal}
 Se 0.6666666666666667  0.3333333333333333  0.58000000000000000
 W  0.3333333333333333  0.6666666666666667  0.50000000000000000
 S  0.6666666666666667  0.3333333333333333  -0.58000000000000000

K_POINTS {automatic}
12 12 1  0 0 0
