&BANDS
outdir = './work'
prefix = 'WSSe'
filband = 'WSSe.bands'
/

